
******************************************************************************
This program contains Ipopt, a library for large-scale nonlinear optimization.
 Ipopt is released as open source code under the Eclipse Public License (EPL).
         For more information visit https://github.com/coin-or/Ipopt
******************************************************************************

This is Ipopt version 3.14.14, running with linear solver MUMPS 5.6.2.

Number of nonzeros in equality constraint Jacobian...:     3608
Number of nonzeros in inequality constraint Jacobian.:      140
Number of nonzeros in Lagrangian Hessian.............:      420

Total number of variables............................:     1155
                     variables with only lower bounds:      560
                variables with lower and upper bounds:       35
                     variables with only upper bounds:        0
Total number of equality constraints.................:     1120
Total number of inequality constraints...............:      140
        inequality constraints with only lower bounds:        0
   inequality constraints with lower and upper bounds:        0
        inequality constraints with only upper bounds:      140

iter    objective    inf_pr   inf_du lg(mu)  ||d||  lg(rg) alpha_du alpha_pr  ls
   0  4.0000000e+01 9.90e-01 8.33e+00  -1.0 0.00e+00    -  0.00e+00 0.00e+00   0
   1  4.5821477e+00 8.38e-01 5.10e+01  -1.0 1.29e+00    -  1.10e-02 1.54e-01f  1
   2  3.2939656e+00 7.53e-01 4.73e+01  -1.0 8.38e-01    -  1.84e-01 1.02e-01f  1
   3  2.0740733e+00 4.32e-01 6.03e+01  -1.0 7.53e-01    -  9.66e-01 4.27e-01f  1
   4  2.0786907e+00 4.31e-01 5.78e+02  -1.0 5.35e-01    -  4.38e-02 1.65e-03h  1
   5  2.6060558e+00 4.18e-01 6.29e+02  -1.0 1.92e+00    -  3.11e-03 3.02e-02h  1
   6  3.0006484e+00 4.09e-01 5.82e+02  -1.0 1.96e+00    -  2.26e-02 2.06e-02h  1
   7  3.0352087e+00 4.09e-01 5.84e+02  -1.0 4.05e+00    -  3.52e-03 1.29e-03h  1
   8  4.4299665e+00 3.83e-01 6.89e+02  -1.0 1.12e+00    -  2.27e-01 6.29e-02h  1
   9  5.9894229e+00 3.60e-01 6.53e+02  -1.0 9.98e-01    -  7.05e-02 5.90e-02h  1
iter    objective    inf_pr   inf_du lg(mu)  ||d||  lg(rg) alpha_du alpha_pr  ls
  10  9.6376994e+00 3.16e-01 5.44e+02  -1.0 9.29e-01    -  2.96e-02 1.25e-01h  1
  11  1.1239240e+01 2.98e-01 5.10e+02  -1.0 8.15e-01    -  4.47e-02 5.68e-02h  1
  12  1.3328353e+01 2.77e-01 4.77e+02  -1.0 7.72e-01    -  5.16e-02 7.09e-02h  1
  13  1.5499929e+01 2.57e-01 4.33e+02  -1.0 7.29e-01    -  3.41e-02 7.02e-02h  1
  14  1.6245204e+01 2.50e-01 4.46e+02  -1.0 5.69e-01    -  6.53e-02 2.69e-02h  1
  15  1.8939051e+01 2.26e-01 3.76e+02  -1.0 6.98e-01    -  7.52e-02 9.75e-02h  1
  16  2.1426844e+01 2.04e-01 3.47e+02  -1.0 6.31e-01    -  4.92e-02 9.64e-02h  1
  17  2.6717558e+01 1.61e-01 1.21e+03  -1.0 8.06e-01    -  4.26e-02 2.09e-01h  1
  18  2.8378457e+01 1.48e-01 1.10e+03  -1.0 8.67e-01    -  5.74e-02 8.03e-02h  1
  19  3.0550527e+01 1.32e-01 7.96e+02  -1.0 4.15e-01    -  5.05e-02 1.14e-01h  1
iter    objective    inf_pr   inf_du lg(mu)  ||d||  lg(rg) alpha_du alpha_pr  ls
  20  3.5885676e+01 9.32e-02 1.74e+03  -1.0 7.26e-01    -  5.51e-02 2.92e-01h  1
  21  3.7277792e+01 8.41e-02 1.63e+03  -1.0 7.16e-01    -  1.11e-01 9.79e-02h  1
  22  3.8770087e+01 7.46e-02 1.42e+03  -1.0 5.25e-01    -  2.73e-01 1.12e-01h  1
  23  4.2688988e+01 5.37e-02 1.19e+03  -1.0 4.57e-01    -  2.47e-02 2.80e-01h  1
  24  4.3352721e+01 4.96e-02 1.11e+03  -1.0 5.86e-01    -  8.86e-02 7.61e-02h  1
  25  4.3801970e+01 4.60e-02 1.11e+03  -1.0 3.15e-01   2.0 1.41e-01 7.33e-02h  1
  26  4.4433337e+01 3.73e-02 9.10e+02  -1.0 1.24e+00   1.5 1.65e-01 1.90e-01h  1
  27  4.3784763e+01 2.00e-02 7.03e+03  -1.0 4.53e-01   1.9 4.64e-01 4.62e-01h  1
  28  4.5181579e+01 1.54e-02 5.57e+03  -1.0 4.04e-01   1.5 1.11e-01 2.30e-01h  1
  29  4.6624293e+01 1.08e-02 4.03e+03  -1.0 1.67e-01   1.9 6.20e-01 2.99e-01h  1
iter    objective    inf_pr   inf_du lg(mu)  ||d||  lg(rg) alpha_du alpha_pr  ls
  30  4.7001050e+01 1.01e-02 3.76e+03  -1.0 4.43e-01    -  2.26e-01 6.26e-02h  1
  31  4.8763484e+01 8.71e-03 3.25e+03  -1.0 1.33e+00    -  3.72e-02 1.41e-01h  1
  32  5.0004860e+01 5.76e-03 2.02e+03  -1.0 1.54e-01    -  4.08e-02 3.39e-01h  1
  33  5.0443221e+01 4.91e-03 1.73e+03  -1.0 3.16e-01    -  1.14e-01 1.47e-01h  1
  34  5.1062318e+01 4.23e-03 1.45e+03  -1.0 2.51e-01    -  3.55e-01 1.38e-01h  1
  35  5.2835599e+01 2.79e-03 9.76e+02  -1.0 4.43e-01    -  2.77e-01 3.41e-01h  1
  36  5.3310867e+01 2.35e-03 8.26e+02  -1.0 4.14e-01    -  1.51e-01 1.56e-01h  1
  37  5.5096118e+01 1.29e-03 4.65e+02  -1.0 3.48e-01    -  4.14e-01 4.53e-01h  1
  38  5.5735313e+01 6.53e-04 2.66e+03  -1.0 1.57e-01    -  1.59e-01 4.93e-01h  1
  39  5.6589578e+01 2.20e-04 7.86e+03  -1.0 2.56e-01    -  3.68e-01 6.63e-01h  1
iter    objective    inf_pr   inf_du lg(mu)  ||d||  lg(rg) alpha_du alpha_pr  ls
  40  5.6580376e+01 1.81e-04 1.98e+04  -1.0 2.55e-01    -  7.18e-01 1.77e-01h  1
  41  5.6587630e+01 1.80e-04 2.65e+05  -1.0 3.13e+00    -  5.25e-02 2.98e-03h  1
  42  5.6829219e+01 1.74e-04 4.45e+05  -1.0 1.79e+01    -  1.00e-01 3.46e-02h  1
  43  5.7126576e+01 1.71e-04 2.83e+05  -1.0 2.49e+01    -  1.10e-02 1.85e-02h  1
  44  6.0046998e+01 1.55e-04 4.09e+05  -1.0 7.45e+00    -  3.35e-01 9.60e-02h  1
  45  6.0083168e+01 1.54e-04 2.88e+06  -1.0 1.67e+01    -  2.49e-02 1.34e-03h  1
  46  6.0195154e+01 1.54e-04 6.27e+06  -1.0 8.48e+01    -  8.59e-03 4.18e-03h  1
  47  6.0316552e+01 1.54e-04 1.12e+07  -1.0 9.98e+01    -  1.66e-03 5.47e-04h  3
  48  6.0351496e+01 1.54e-04 1.19e+07  -1.0 1.07e+02    -  7.25e-04 6.75e-05h  7
  49  6.0369266e+01 1.54e-04 1.27e+07  -1.0 1.10e+02    -  1.20e-03 3.19e-05h  8
iter    objective    inf_pr   inf_du lg(mu)  ||d||  lg(rg) alpha_du alpha_pr  ls
  50r 6.0369266e+01 1.54e-04 1.00e+03  -1.0 0.00e+00    -  0.00e+00 4.61e-07R 14
  51r 6.5219632e+01 1.34e-04 3.46e+02  -1.0 1.12e-01    -  6.65e-01 8.15e-01f  1
  52  6.4507495e+01 1.44e-04 2.39e+02  -1.0 6.62e-01    -  1.22e-01 2.64e-02f  1
  53  6.2273244e+01 1.39e-04 2.39e+03  -1.0 8.19e+00    -  5.75e-01 5.38e-02f  1
  54  6.1442124e+01 1.59e-04 2.32e+04  -1.0 4.34e-01    -  4.39e-01 3.14e-01h  1
  55  6.2576317e+01 8.16e-05 4.16e+04  -1.0 7.46e-01    -  5.59e-01 4.09e-01h  1
  56  6.2818396e+01 8.27e-05 2.67e+05  -1.0 1.21e+00    -  2.64e-01 3.61e-02h  3
  57  6.3039535e+01 8.45e-05 3.14e+05  -1.0 1.32e+00    -  5.93e-02 1.59e-02h  4
  58  6.3332010e+01 8.63e-05 3.40e+05  -1.0 1.31e+00    -  4.12e-02 1.71e-02h  4
  59  6.3507938e+01 8.63e-05 4.26e+05  -1.0 1.54e+00    -  7.96e-02 9.20e-03h  5
iter    objective    inf_pr   inf_du lg(mu)  ||d||  lg(rg) alpha_du alpha_pr  ls
  60  6.3794167e+01 8.63e-05 4.96e+05  -1.0 2.33e+00    -  7.21e-02 1.11e-02h  5
  61  6.4063217e+01 8.62e-05 5.89e+05  -1.0 2.16e+00    -  8.23e-02 1.09e-02h  5
  62  6.4354392e+01 8.61e-05 7.01e+05  -1.0 2.07e+00    -  8.06e-02 1.14e-02h  5
  63  6.4694942e+01 8.59e-05 7.87e+05  -1.0 1.54e+00    -  6.07e-02 1.12e-02h  5
  64  6.5081412e+01 8.57e-05 8.82e+05  -1.0 1.22e+00    -  6.67e-02 1.12e-02h  5
  65  6.5470477e+01 8.55e-05 9.63e+05  -1.0 1.32e+00    -  5.49e-02 1.14e-02h  5
  66  7.1700510e+01 1.08e-03 7.18e+05  -1.0 1.26e+00    -  1.58e-01 1.87e-01w  1
  67  7.1854480e+01 1.06e-03 3.73e+05  -1.0 6.10e-01    -  2.35e-01 2.30e-02w  1
  68  7.1687980e+01 9.98e-04 4.74e+05  -1.0 2.25e+00    -  4.84e-02 6.03e-02w  1
  69  6.5859854e+01 8.53e-05 1.28e+06  -1.0 1.43e+00    -  1.58e-01 1.17e-02h  4
iter    objective    inf_pr   inf_du lg(mu)  ||d||  lg(rg) alpha_du alpha_pr  ls
  70  6.6223709e+01 8.52e-05 1.57e+06  -1.0 9.73e-01    -  8.90e-02 1.30e-02h  5
  71  6.6593673e+01 8.50e-05 2.11e+06  -1.0 1.04e+00    -  1.38e-01 1.31e-02h  5
  72  6.7001983e+01 8.47e-05 2.71e+06  -1.0 9.51e-01    -  1.18e-01 1.30e-02h  5
  73  6.7414229e+01 8.45e-05 3.64e+06  -1.0 8.03e-01    -  1.47e-01 1.59e-02h  4
  74  6.7735220e+01 8.41e-05 5.87e+06  -1.0 7.62e-01    -  2.61e-01 1.22e-02h  4
  75  6.8098379e+01 8.39e-05 8.82e+06  -1.0 9.13e-01    -  1.99e-01 1.70e-02h  4
  76  6.8571934e+01 8.41e-05 1.55e+07  -1.0 8.86e-01    -  3.24e-01 2.12e-02h  4
  77  6.8828971e+01 8.37e-05 2.18e+07  -1.0 9.00e-01    -  1.87e-01 1.30e-02h  5
  78  6.9115370e+01 8.32e-05 5.64e+07  -1.0 8.87e-01    -  6.76e-01 1.41e-02h  5
  79  7.3183585e+01 7.28e-04 5.02e+07  -1.0 1.03e+00    -  1.81e-01 2.30e-01w  1
iter    objective    inf_pr   inf_du lg(mu)  ||d||  lg(rg) alpha_du alpha_pr  ls
  80  7.3331601e+01 7.09e-04 4.92e+07  -1.0 7.31e-01    -  1.33e-01 2.46e-02w  1
  81  7.3333506e+01 7.09e-04 1.01e+09  -1.0 4.86e+00    -  1.73e-01 4.04e-04w  1
  82  6.9369633e+01 8.27e-05 8.26e+07  -1.0 1.68e+01    -  1.81e-01 1.44e-02h  4
  83  6.9647556e+01 8.22e-05 2.53e+08  -1.0 8.74e-01    -  8.66e-01 1.48e-02h  5
  84  6.9903861e+01 8.15e-05 3.47e+08  -1.0 9.28e-01    -  1.56e-01 1.51e-02h  5
  85  7.0164790e+01 8.08e-05 1.11e+09  -1.0 7.64e-01    -  1.00e+00 1.47e-02h  5
  86  7.0408880e+01 8.01e-05 1.48e+09  -1.0 8.35e-01    -  1.44e-01 1.52e-02h  5
  87  7.0650695e+01 7.93e-05 3.46e+09  -1.0 7.66e-01    -  6.43e-01 1.49e-02h  5
  88  7.0879896e+01 7.84e-05 4.68e+09  -1.0 8.29e-01    -  1.65e-01 1.53e-02h  5
  89  7.1105126e+01 7.76e-05 1.39e+10  -1.0 9.14e-01    -  1.00e+00 1.52e-02h  5
iter    objective    inf_pr   inf_du lg(mu)  ||d||  lg(rg) alpha_du alpha_pr  ls
  90  7.1322666e+01 7.67e-05 1.92e+10  -1.0 8.84e-01    -  1.68e-01 1.56e-02h  5
  91  7.1540301e+01 7.58e-05 3.49e+10  -1.0 9.09e-01    -  4.30e-01 1.57e-02h  5
  92  7.5083569e+01 6.80e-04 5.59e+10  -1.0 7.61e-01    -  2.39e-01 2.54e-01w  1
  93  7.5236848e+01 6.47e-04 5.38e+10  -1.0 7.55e-01    -  1.79e-01 4.52e-02w  1
  94  7.5217098e+01 6.44e-04 5.37e+10  -1.0 3.99e-01    -  1.05e-01 5.41e-03w  1
  95  7.1761756e+01 7.48e-05 5.08e+10  -1.0 5.20e-01    -  2.39e-01 1.59e-02h  4
  96  7.1978786e+01 7.39e-05 6.11e+10  -1.0 7.97e-01    -  1.34e-01 1.60e-02h  5
  97  7.2197916e+01 7.29e-05 1.13e+11  -1.0 6.94e-01    -  5.92e-01 1.62e-02h  5
  98  7.2408284e+01 7.19e-05 1.31e+11  -1.0 6.62e-01    -  9.83e-02 1.65e-02h  5
  99  7.2618730e+01 7.08e-05 3.29e+11  -1.0 5.96e-01    -  1.00e+00 1.65e-02h  5
iter    objective    inf_pr   inf_du lg(mu)  ||d||  lg(rg) alpha_du alpha_pr  ls
 100  7.2821916e+01 6.97e-05 3.95e+11  -1.0 6.36e-01    -  1.02e-01 1.68e-02h  5
 101  7.3023988e+01 6.86e-05 7.47e+11  -1.0 7.80e-01    -  5.65e-01 1.69e-02h  5
 102  7.3221638e+01 6.74e-05 8.90e+11  -1.0 8.67e-01    -  1.23e-01 1.71e-02h  5
 103  7.3415380e+01 6.62e-05 1.90e+12  -1.0 9.74e-01    -  9.79e-01 1.70e-02h  5
 104  7.3604499e+01 6.50e-05 2.38e+12  -1.0 1.05e+00    -  1.28e-01 1.70e-02h  5
 105  7.6569885e+01 7.97e-04 1.19e+13  -1.0 1.16e+00    -  5.40e-01 2.68e-01w  1
 106  7.6095123e+01 6.45e-04 8.97e+12  -1.0 2.74e-01   2.3 2.16e-01 2.51e-01w  1
 107  7.6265184e+01 6.23e-04 9.03e+12  -1.0 1.51e+00    -  5.27e-02 3.39e-02w  1
 108  7.3789835e+01 6.37e-05 3.84e+12  -1.0 1.17e+00    -  5.40e-01 1.68e-02h  4
 109  7.3970414e+01 6.25e-05 4.63e+12  -1.0 1.24e+00    -  1.62e-01 1.65e-02h  5
iter    objective    inf_pr   inf_du lg(mu)  ||d||  lg(rg) alpha_du alpha_pr  ls
 110  7.4144607e+01 6.12e-05 6.56e+12  -1.0 1.32e+00    -  1.00e+00 1.58e-02h  5
 111  7.4309421e+01 6.00e-05 7.33e+12  -1.0 1.10e+00    -  7.04e-02 1.46e-02h  5
 112  7.4479116e+01 5.89e-05 6.46e+12  -1.0 8.34e-01    -  1.84e-01 1.38e-02h  5
 113  7.4639384e+01 5.78e-05 5.74e+12  -1.0 8.10e-01    -  4.53e-02 1.29e-02h  5
 114  7.4793302e+01 5.67e-05 1.53e+12  -1.0 7.68e-01    -  1.49e-01 1.17e-02h  5
 115  7.4935816e+01 5.56e-05 1.78e+12  -1.0 8.35e-01    -  1.10e-03 1.10e-02h  5
 116  7.5183189e+01 5.20e-05 9.84e+11  -1.0 6.62e-01    -  8.89e-04 3.00e-02h  4
 117  7.5384407e+01 4.78e-05 9.43e+11  -1.0 6.28e-01    -  4.36e-02 3.37e-02h  4
 118  7.6841422e+01 2.83e-04 2.83e+12  -1.0 8.91e-01    -  1.05e-01 1.74e-01w  1
 119  7.6841421e+01 2.83e-04 2.83e+12  -1.0 1.92e-04  16.2 1.46e-01 7.91e-02w  1
iter    objective    inf_pr   inf_du lg(mu)  ||d||  lg(rg) alpha_du alpha_pr  ls
 120  7.6683219e+01 2.51e-04 1.11e+16  -1.0 5.00e-02  15.7 8.79e-03 1.15e-01w  1
 121  7.5566534e+01 4.40e-05 7.34e+11  -1.0 5.03e-02  15.2 1.05e-01 2.17e-02h  3
 122  7.5651166e+01 4.31e-05 5.86e+11  -1.0 6.21e+00    -  2.17e-02 2.03e-03h  5
 123  7.5490825e+01 3.86e-05 1.48e+15  -1.0 8.01e-02  14.7 4.60e-02 1.03e-01h  1
 124  7.5489999e+01 3.86e-05 1.48e+15  -1.0 9.53e-02  14.3 3.19e-01 3.49e-04h  1
 125  7.5438427e+01 3.78e-05 1.44e+15  -1.0 8.75e-02  13.8 2.25e-01 2.38e-02h  1
 126  7.5379310e+01 3.66e-05 1.39e+15  -1.0 9.10e-02  13.3 9.69e-02 3.40e-02h  1
 127  7.5291037e+01 3.48e-05 1.32e+15  -1.0 2.15e-01  12.8 1.01e-01 5.21e-02h  1
 128  7.5238396e+01 3.36e-05 1.27e+15  -1.0 1.10e-01  13.3 2.95e-01 3.69e-02h  1
 129  7.5230614e+01 3.34e-05 1.27e+15  -1.0 8.87e-02  13.7 1.69e-01 5.60e-03h  1
iter    objective    inf_pr   inf_du lg(mu)  ||d||  lg(rg) alpha_du alpha_pr  ls
 130  7.4812784e+01 2.85e-05 8.83e+14  -1.0 1.21e-01  13.2 2.36e-01 3.04e-01h  1
 131  7.4807343e+01 2.83e-05 8.78e+14  -1.0 9.37e-02  13.6 4.39e-01 5.71e-03h  1
 132  7.4802455e+01 2.82e-05 8.74e+14  -1.0 1.49e-01  13.2 6.56e-01 5.21e-03h  1
 133  7.4802407e+01 2.82e-05 8.74e+14  -1.0 1.03e-01  13.6 7.50e-01 5.29e-05h  1
 134  7.4792659e+01 2.79e-05 8.66e+14  -1.0 1.86e-01  13.1 1.35e-01 9.34e-03h  1
 135  7.4744557e+01 2.65e-05 8.22e+14  -1.0 1.18e-01  13.5 2.13e-01 4.91e-02h  1
 136  7.4479635e+01 2.64e-05 7.09e+14  -1.0 2.39e-01  13.0 8.28e-03 2.62e-01h  1
 137  7.4458290e+01 2.57e-05 6.95e+14  -1.0 1.17e-01  13.5 3.07e-02 2.30e-02h  1
 138  7.4458207e+01 2.57e-05 6.95e+14  -1.0 5.30e-01  13.0 2.04e-02 2.90e-05h  1
 139r 7.4458207e+01 2.57e-05 1.00e+03  -1.0 0.00e+00  13.4 0.00e+00 4.48e-07R  3
iter    objective    inf_pr   inf_du lg(mu)  ||d||  lg(rg) alpha_du alpha_pr  ls
 140r 7.6235167e+01 1.02e-04 6.56e+01  -1.0 9.77e-02    -  9.40e-01 1.00e+00f  1
 141r 7.8666873e+01 2.64e-04 6.70e+02  -1.0 1.81e-01    -  1.81e-01 5.45e-01f  1
 142r 8.1316281e+01 4.91e-04 2.56e+02  -1.0 9.93e-02    -  5.13e-01 1.00e+00f  1
 143r 8.2516224e+01 6.39e-04 2.53e+02  -1.0 1.37e-01    -  5.82e-01 1.00e+00f  1
 144r 8.1865820e+01 9.07e-04 1.77e+02  -1.0 2.99e-01    -  4.92e-01 7.95e-01f  1
 145r 7.8628119e+01 6.90e-04 2.74e+02  -1.0 1.48e-01    -  6.88e-01 1.00e+00f  1
 146r 6.6354625e+01 7.26e-04 1.61e+02  -1.0 1.93e-01    -  7.47e-01 9.55e-01f  1
 147r 6.5692588e+01 7.07e-04 1.03e+02  -1.0 2.01e-01    -  7.49e-01 1.00e+00f  1
 148r 6.4627801e+01 7.13e-04 5.86e+00  -1.0 1.16e-01    -  1.00e+00 1.00e+00f  1
 149r 6.4722689e+01 7.14e-04 6.69e-02  -1.0 1.70e-02    -  1.00e+00 1.00e+00h  1
iter    objective    inf_pr   inf_du lg(mu)  ||d||  lg(rg) alpha_du alpha_pr  ls
 150r 6.4658847e+01 3.37e-04 4.41e+01  -3.8 1.79e-01    -  5.60e-01 6.30e-01f  1
 151r 6.4339274e+01 2.65e-04 1.19e+02  -3.8 1.15e-01    -  4.73e-01 3.53e-01f  1
 152r 6.4071515e+01 3.66e-04 2.98e+01  -3.8 1.85e-02   2.0 7.04e-01 8.65e-01f  1
 153r 6.3810554e+01 3.36e-04 1.37e+02  -3.8 4.49e-02   1.5 9.10e-01 4.82e-01f  1
 154r 6.2913948e+01 2.08e-04 6.23e+01  -3.8 1.11e-01   1.0 7.53e-01 6.35e-01f  1
 155r 6.2729446e+01 1.92e-04 4.04e+02  -3.8 1.70e-01   0.6 1.00e+00 9.42e-02f  1
 156r 6.2157134e+01 1.61e-04 2.61e+01  -3.8 6.54e-02   1.0 1.00e+00 9.50e-01f  1
 157r 6.1390946e+01 1.98e-04 8.71e+01  -3.8 1.99e-01   0.5 5.51e-01 4.45e-01f  1
 158r 6.0963544e+01 1.00e-04 8.20e+01  -3.8 4.65e-02   0.9 1.00e+00 8.17e-01f  1
 159r 6.0501096e+01 7.80e-05 3.70e+02  -3.8 5.89e-02   0.5 3.83e-01 6.26e-01f  1
iter    objective    inf_pr   inf_du lg(mu)  ||d||  lg(rg) alpha_du alpha_pr  ls
 160r 6.0016134e+01 6.35e-05 6.52e+02  -3.8 9.59e-02   0.9 1.00e+00 4.67e-01f  1
 161r 5.9914637e+01 6.03e-05 2.12e+02  -3.8 1.35e-01   0.4 1.00e+00 9.35e-02f  1
 162r 5.9539610e+01 7.86e-05 1.34e+02  -3.8 9.06e-02  -0.1 1.00e+00 6.38e-01f  1
 163r 5.9523052e+01 1.52e-04 7.26e+01  -3.8 8.13e-02  -0.5 1.00e+00 5.89e-01f  1
 164r 5.9510190e+01 2.29e-05 4.45e+02  -3.8 2.25e-02  -0.1 3.85e-01 7.96e-01f  1
 165  5.5290479e+01 5.19e-05 3.27e+04  -1.0 7.56e-01    -  3.32e-01 8.29e-02f  1
 166  5.5329619e+01 5.16e-05 1.20e+06  -1.0 6.00e+00    -  6.61e-02 6.38e-03h  1
 167  5.5993435e+01 5.00e-05 1.76e+06  -1.0 8.11e+00    -  6.38e-01 4.14e-02h  1
 168  5.6010794e+01 4.97e-05 5.44e+06  -1.0 1.43e+01    -  3.82e-02 5.75e-03h  1
 169  5.6039908e+01 4.89e-05 1.70e+07  -1.0 1.45e+01    -  4.34e-02 1.61e-02h  1
iter    objective    inf_pr   inf_du lg(mu)  ||d||  lg(rg) alpha_du alpha_pr  ls
 170  5.6047922e+01 4.88e-05 1.29e+08  -1.0 7.16e+01    -  8.28e-03 1.84e-03h  1
 171  5.6035438e+01 4.88e-05 6.29e+08  -1.0 2.48e+02    -  2.27e-03 6.20e-04h  1
 172  5.5988336e+01 4.88e-05 2.97e+09  -1.0 1.33e+03    -  4.23e-04 1.15e-04h  1
 173  5.5933645e+01 4.88e-05 2.94e+09  -1.0 3.41e+03    -  2.88e-05 2.88e-05s  7
 174  5.5918395e+01 4.88e-05 2.92e+09  -1.0 4.95e+02    -  3.29e-06 3.29e-06s  7
 175  5.5916090e+01 4.88e-05 2.91e+09  -1.0 1.90e+02    -  4.63e-07 4.63e-07s  7
 176  5.5915900e+01 4.88e-05 2.91e+09  -1.0 2.62e+01    -  2.75e-07 2.75e-07s  7
 177r 5.5915900e+01 4.88e-05 1.00e+03  -1.0 0.00e+00    -  0.00e+00 0.00e+00R  1
 178r 5.7675476e+01 2.77e-04 4.27e+02  -1.0 1.01e-01    -  6.09e-01 1.00e+00f  1
 179r 5.8969456e+01 2.39e-04 2.48e+02  -1.0 1.02e-01    -  5.14e-01 1.00e+00f  1
iter    objective    inf_pr   inf_du lg(mu)  ||d||  lg(rg) alpha_du alpha_pr  ls
 180r 6.1242567e+01 3.22e-04 3.31e+02  -1.0 6.98e-02    -  5.55e-01 1.00e+00f  1
 181r 6.1439469e+01 4.81e-04 2.39e+02  -1.0 1.73e-02   2.0 5.42e-01 1.00e+00f  1
 182r 6.0566965e+01 3.45e-03 3.81e+02  -1.0 4.55e-01    -  3.11e-01 9.27e-01f  1
 183r 6.0788891e+01 1.53e-03 4.79e+01  -1.0 2.77e-01    -  9.56e-01 1.00e+00f  1
 184r 6.3763189e+01 7.24e-04 4.93e+02  -1.0 2.88e-01    -  4.26e-01 7.08e-01f  1
 185r 6.4673642e+01 7.22e-04 4.76e+02  -1.0 3.32e-01    -  4.46e-01 1.76e-01f  1
 186r 6.2718220e+01 7.12e-04 2.81e+01  -1.0 2.08e-01    -  1.00e+00 1.00e+00f  1
 187r 6.2125050e+01 7.15e-04 2.51e+00  -1.0 1.42e-01    -  1.00e+00 1.00e+00f  1
 188r 6.0965901e+01 3.45e-04 2.01e+01  -1.7 1.43e-01    -  7.05e-01 7.37e-01f  1
 189r 6.0425153e+01 2.53e-04 4.35e+01  -1.7 1.32e-01    -  4.05e-01 4.38e-01f  1
iter    objective    inf_pr   inf_du lg(mu)  ||d||  lg(rg) alpha_du alpha_pr  ls
 190r 5.9719969e+01 3.07e-04 3.25e+02  -1.7 5.37e+00    -  4.59e-02 1.39e-02f  1
 191r 6.0084361e+01 1.68e-04 3.86e+00  -1.7 6.06e-02    -  9.86e-01 1.00e+00f  1
 192r 6.0238951e+01 1.70e-04 5.01e+01  -1.7 1.54e-02    -  7.21e-01 1.00e+00f  1
 193r 6.0209312e+01 1.69e-04 2.93e-02  -1.7 2.74e-03    -  1.00e+00 1.00e+00h  1
 194r 6.0653391e+01 1.42e-04 2.42e+01  -3.8 1.24e-01    -  6.53e-01 8.13e-01f  1
 195r 6.1234531e+01 1.80e-04 6.24e+01  -3.8 1.06e-01    -  5.10e-01 6.41e-01f  1
 196r 6.0942009e+01 8.21e-05 4.89e+01  -3.8 2.03e-02   1.5 8.48e-01 5.64e-01f  1
 197r 6.0774568e+01 7.57e-05 3.57e+02  -3.8 5.79e-02   1.0 1.00e+00 2.14e-01f  1
 198r 5.9967963e+01 5.54e-05 1.18e+02  -3.8 1.41e-01   0.6 2.62e-01 5.65e-01f  1
 199r 5.9384798e+01 6.01e-05 8.77e+01  -3.8 7.49e-02   0.1 1.00e+00 8.09e-01f  1
iter    objective    inf_pr   inf_du lg(mu)  ||d||  lg(rg) alpha_du alpha_pr  ls
 200r 5.8635303e+01 2.10e-04 7.05e+01  -3.8 1.39e-01  -0.4 1.00e+00 5.40e-01f  1
 201r 5.8475404e+01 2.03e-04 6.00e+02  -3.8 5.58e-01  -0.9 1.98e-02 5.73e-02F  1
 202r 5.8333666e+01 1.08e-04 2.77e+02  -3.8 1.61e-02   1.4 1.34e-01 4.67e-01f  1
 203r 5.8313951e+01 9.51e-05 7.97e+02  -3.8 7.75e-02   0.9 8.26e-04 1.33e-01h  1
 204r 5.8165665e+01 9.50e-05 6.37e+02  -3.8 5.36e+00   0.4 1.05e-04 5.84e-03f  1
 205r 5.7779588e+01 3.73e-05 1.48e+02  -3.8 2.23e-02  -0.1 7.68e-01 7.69e-01f  1
 206  5.7983061e+01 3.70e-05 2.04e+06  -1.0 1.83e+01    -  3.07e-02 5.92e-03f  2
 207  5.7860849e+01 3.68e-05 1.39e+07  -1.0 4.76e+00    -  1.19e-01 5.90e-03h  3
 208  5.7825368e+01 3.67e-05 1.45e+07  -1.0 6.77e+00    -  4.05e-03 2.93e-03h  4
 209  5.7825778e+01 3.67e-05 7.03e+07  -1.0 6.19e+00    -  8.90e-02 8.93e-05h  9
iter    objective    inf_pr   inf_du lg(mu)  ||d||  lg(rg) alpha_du alpha_pr  ls
 210  5.7831069e+01 3.67e-05 7.45e+07  -1.0 7.31e+00    -  1.86e-03 6.44e-04h  6
 211r 5.7831069e+01 3.67e-05 1.00e+03  -1.0 0.00e+00    -  0.00e+00 4.97e-07R 16
 212r 6.4739280e+01 1.51e-04 6.02e+02  -1.0 3.37e+00    -  5.65e-01 2.34e-01f  1
 213r 6.7675930e+01 6.65e-04 1.56e+02  -1.0 1.73e-01    -  7.63e-01 1.00e+00f  1
 214r 6.3399140e+01 4.42e-04 5.87e+02  -1.0 4.59e-01    -  2.19e-01 1.00e+00f  1
 215r 6.3249250e+01 5.16e-04 5.58e+02  -1.0 1.87e-01    -  5.73e-01 9.99e-01f  1
 216r 6.2995276e+01 6.37e-04 2.96e+02  -1.0 1.95e-01    -  5.06e-01 1.00e+00f  1
 217r 6.3099725e+01 6.91e-04 3.78e+01  -1.0 1.65e-01    -  1.00e+00 1.00e+00f  1
 218r 6.1738815e+01 7.22e-04 6.53e+01  -1.0 5.39e-01    -  7.77e-01 1.00e+00h  1
 219r 6.2471810e+01 7.15e-04 2.88e+00  -1.0 2.76e-01    -  1.00e+00 1.00e+00f  1
iter    objective    inf_pr   inf_du lg(mu)  ||d||  lg(rg) alpha_du alpha_pr  ls
 220r 6.1188256e+01 3.56e-04 3.67e+01  -1.7 1.46e-01    -  7.04e-01 7.64e-01f  1
 221r 6.0545789e+01 2.99e-04 2.16e+01  -1.7 2.70e-01    -  2.45e-01 2.37e-01f  1
 222r 5.9979185e+01 3.26e-04 3.12e+02  -1.7 4.66e-01    -  4.59e-01 1.42e-01f  1
 223r 6.0395230e+01 1.62e-04 7.61e-01  -1.7 5.79e-02    -  1.00e+00 1.00e+00f  1
 224r 6.1157244e+01 1.87e-04 3.74e+01  -2.5 1.16e-01    -  7.17e-01 1.00e+00f  1
 225r 6.1495491e+01 1.66e-04 5.49e+01  -2.5 7.56e-02    -  8.35e-01 9.99e-01f  1
 226r 6.0395440e+01 8.92e-05 1.21e+01  -2.5 1.32e-01   0.0 1.00e+00 1.00e+00f  1
 227r 6.0203434e+01 5.24e-05 3.79e+00  -2.5 4.16e-02    -  1.00e+00 1.00e+00h  1
 228r 5.9919338e+01 5.05e-05 1.31e+00  -2.5 1.95e-02    -  1.00e+00 1.00e+00h  1
 229r 6.0028257e+01 5.17e-05 1.02e-01  -2.5 1.41e-02    -  1.00e+00 1.00e+00h  1
iter    objective    inf_pr   inf_du lg(mu)  ||d||  lg(rg) alpha_du alpha_pr  ls
 230r 6.0361034e+01 9.69e-05 1.39e+00  -3.8 9.37e-02    -  7.51e-01 7.70e-01f  1
 231r 6.1102831e+01 8.33e-05 4.22e+01  -3.8 7.04e-02    -  7.35e-01 6.35e-01f  1
 232r 6.1400157e+01 1.18e-04 2.63e-01  -3.8 8.13e-02    -  1.00e+00 1.00e+00f  1
 233r 6.0760372e+01 1.52e-05 2.71e-02  -3.8 2.34e-02    -  1.00e+00 1.00e+00h  1
 234r 6.0658204e+01 7.52e-06 1.52e-03  -3.8 4.80e-03    -  1.00e+00 1.00e+00h  1
 235  5.8248093e+01 1.31e-05 2.18e+04  -1.0 5.81e-01    -  2.47e-01 5.95e-02f  1
 236  5.7822066e+01 1.29e-05 5.59e+05  -1.0 2.09e+00    -  8.77e-01 2.45e-02f  2
 237  5.8055245e+01 1.23e-05 3.22e+06  -1.0 2.07e+00    -  2.57e-01 4.48e-02h  1
 238  5.8680494e+01 1.20e-05 6.69e+06  -1.0 7.37e+00    -  8.24e-02 2.13e-02h  1
 239  5.8716904e+01 1.19e-05 4.84e+07  -1.0 1.71e+01    -  3.54e-02 4.41e-03h  1
iter    objective    inf_pr   inf_du lg(mu)  ||d||  lg(rg) alpha_du alpha_pr  ls
 240  5.8743948e+01 1.19e-05 2.30e+08  -1.0 4.57e+01    -  1.36e-02 3.17e-03h  1
 241  5.8741343e+01 1.19e-05 1.38e+09  -1.0 4.92e+02    -  1.27e-03 2.58e-04h  1
 242  5.8723287e+01 1.19e-05 8.15e+09  -1.0 2.78e+03    -  2.32e-04 4.70e-05h  1
 243  5.8704907e+01 1.19e-05 8.12e+09  -1.0 2.69e+03    -  6.22e-06 6.22e-06s  5
 244  5.8701457e+01 1.19e-05 8.10e+09  -1.0 2.28e+02    -  7.36e-07 7.36e-07s  5
 245  5.8701103e+01 1.19e-05 8.10e+09  -1.0 4.48e+01    -  3.10e-07 3.10e-07s  5
 246r 5.8701103e+01 1.19e-05 1.00e+03  -1.0 0.00e+00    -  0.00e+00 0.00e+00R  1
 247r 6.0625991e+01 1.34e-04 2.49e+02  -1.0 9.31e-02    -  7.73e-01 1.00e+00f  1
 248r 6.0601786e+01 4.58e-04 4.91e+02  -1.0 1.29e-01    -  3.24e-01 1.00e+00f  1
 249r 6.0368081e+01 3.76e-04 2.61e+02  -1.0 1.59e-01    -  5.68e-01 1.00e+00f  1
iter    objective    inf_pr   inf_du lg(mu)  ||d||  lg(rg) alpha_du alpha_pr  ls
 250r 6.1910643e+01 4.83e-04 9.09e+01  -1.0 1.25e-01    -  6.36e-01 7.25e-01f  1
 251r 6.3308500e+01 6.29e-04 3.24e+02  -1.0 1.72e-01    -  5.41e-01 1.00e+00f  1
 252r 6.1275208e+01 1.15e-03 7.65e+01  -1.0 2.88e-01    -  9.26e-01 1.00e+00f  1
 253r 6.4226341e+01 8.75e-04 5.62e+02  -1.0 5.31e-01    -  2.67e-01 5.19e-01f  1
 254r 6.2709209e+01 7.06e-04 6.86e+01  -1.0 1.95e-01    -  1.00e+00 1.00e+00f  1
 255r 6.3014972e+01 7.17e-04 2.87e+01  -1.0 2.88e-01    -  7.34e-01 6.87e-01h  1
 256r 6.2877470e+01 7.14e-04 1.35e+00  -1.0 4.00e-02    -  1.00e+00 1.00e+00f  1
 257r 6.1805250e+01 3.51e-04 3.18e+01  -1.7 1.48e-01    -  6.98e-01 7.51e-01f  1
 258r 6.1312112e+01 2.47e-04 4.13e+01  -1.7 1.10e-01    -  4.75e-01 5.04e-01f  1
 259r 6.0581477e+01 3.02e-04 3.41e+02  -1.7 8.00e-01   0.0 3.09e-01 1.04e-01f  1
iter    objective    inf_pr   inf_du lg(mu)  ||d||  lg(rg) alpha_du alpha_pr  ls
 260r 6.0974425e+01 1.58e-04 8.97e-01  -1.7 5.58e-02    -  1.00e+00 1.00e+00f  1
 261r 6.2040723e+01 1.88e-04 3.30e+01  -2.5 1.13e-01    -  7.33e-01 1.00e+00f  1
 262r 6.2407853e+01 1.62e-04 3.03e+01  -2.5 7.32e-02    -  8.99e-01 1.00e+00f  1
 263r 6.1619427e+01 5.57e-05 1.83e+00  -2.5 7.95e-02   0.4 1.00e+00 1.00e+00f  1
 264r 6.1300138e+01 5.32e-05 3.80e+02  -2.5 7.71e-01    -  2.07e-01 3.11e-02f  2
 265r 6.1078096e+01 4.87e-05 6.43e-01  -2.5 1.73e-02    -  1.00e+00 1.00e+00h  1
 266r 6.0986478e+01 4.81e-05 5.76e-02  -2.5 8.17e-03    -  1.00e+00 1.00e+00h  1
 267r 6.1640855e+01 9.54e-05 1.60e-01  -3.8 9.04e-02    -  7.72e-01 7.71e-01f  1
 268r 6.2418485e+01 8.45e-05 1.04e+02  -3.8 6.90e-02    -  8.78e-01 6.35e-01f  1
 269r 6.2823814e+01 9.04e-05 3.15e-01  -3.8 5.74e-02    -  1.00e+00 1.00e+00f  1
iter    objective    inf_pr   inf_du lg(mu)  ||d||  lg(rg) alpha_du alpha_pr  ls
 270r 6.1960006e+01 1.68e-05 2.28e-02  -3.8 2.30e-02    -  1.00e+00 1.00e+00h  1
 271r 6.1854608e+01 6.30e-06 1.08e-03  -3.8 5.73e-03    -  1.00e+00 1.00e+00h  1
 272  6.0583062e+01 6.10e-06 2.39e+04  -1.0 5.90e-01    -  2.36e-01 3.05e-02f  2
 273  5.9698284e+01 5.90e-06 4.02e+05  -1.0 2.75e+00    -  8.97e-01 3.35e-02f  2
 274  5.9666392e+01 5.59e-06 3.93e+06  -1.0 9.50e-01    -  5.10e-01 5.25e-02h  1
 275  6.0335837e+01 5.46e-06 9.12e+06  -1.0 7.71e+00    -  1.10e-01 2.28e-02h  1
 276  6.0360759e+01 5.44e-06 1.09e+08  -1.0 1.52e+01    -  4.47e-02 3.44e-03h  1
 277  6.0372124e+01 5.43e-06 9.86e+08  -1.0 4.62e+01    -  1.52e-02 1.80e-03h  1
 278  6.0366008e+01 5.43e-06 1.04e+10  -1.0 8.22e+02    -  8.45e-04 4.70e-05h  2
 279  6.0341029e+01 5.43e-06 1.03e+10  -1.0 1.12e+03    -  5.67e-05 5.67e-05s  8
iter    objective    inf_pr   inf_du lg(mu)  ||d||  lg(rg) alpha_du alpha_pr  ls
 280  6.0336698e+01 5.43e-06 1.03e+10  -1.0 4.82e+02    -  1.59e-06 1.59e-06s  8
 281  6.0336278e+01 5.43e-06 1.03e+10  -1.0 1.74e+02    -  1.06e-07 1.06e-07s  8
 282r 6.0336278e+01 5.43e-06 1.00e+03  -1.0 0.00e+00    -  0.00e+00 0.00e+00R  1
 283r 6.2322572e+01 1.19e-04 1.81e+02  -1.0 9.60e-02    -  8.35e-01 1.00e+00f  1
 284r 6.2502909e+01 3.82e-04 5.48e+02  -1.0 1.42e-01    -  4.13e-01 1.00e+00f  1
 285r 6.0061543e+01 2.10e-03 2.26e+02  -1.0 5.17e-01    -  5.14e-01 9.19e-01f  1
 286r 6.3496458e+01 1.46e-03 5.69e+02  -1.0 3.33e-01    -  7.95e-02 9.72e-01f  1
 287r 6.2730459e+01 6.38e-04 2.04e+02  -1.0 1.09e-01    -  7.53e-01 1.00e+00f  1
 288r 6.1464504e+01 1.37e-03 1.14e+02  -1.0 2.62e-01    -  5.81e-01 1.00e+00f  1
 289r 6.2656569e+01 6.97e-04 1.94e+01  -1.0 1.65e-01    -  9.83e-01 1.00e+00f  1
iter    objective    inf_pr   inf_du lg(mu)  ||d||  lg(rg) alpha_du alpha_pr  ls
 290r 6.4022590e+01 7.11e-04 5.96e+01  -1.0 4.54e+00    -  2.32e-02 2.82e-02f  2
 291r 6.4116038e+01 7.04e-04 1.81e+00  -1.0 1.81e-02   2.0 1.00e+00 1.00e+00f  1
 292r 6.3019369e+01 3.21e-04 1.16e+01  -1.7 1.08e-01    -  8.82e-01 8.88e-01f  1
 293r 6.2587765e+01 3.24e-04 2.70e+00  -1.7 3.83e-02   1.5 1.00e+00 1.00e+00f  1
 294r 6.1749028e+01 2.02e-04 2.59e+00  -1.7 7.22e-02   1.0 1.00e+00 1.00e+00f  1
 295r 6.1803905e+01 1.60e-04 3.29e-01  -1.7 8.85e-02    -  1.00e+00 1.00e+00f  1
 296r 6.2766173e+01 1.57e-04 2.34e+01  -2.5 1.03e-01    -  7.52e-01 9.55e-01f  1
 297r 6.3089818e+01 1.53e-04 1.23e+01  -2.5 7.31e-02    -  9.54e-01 1.00e+00f  1
 298r 6.2257141e+01 5.41e-05 9.72e+00  -2.5 7.06e-02   0.6 1.00e+00 1.00e+00h  1
 299r 6.2097262e+01 5.01e-05 4.32e+02  -2.5 1.37e-01   0.1 1.00e+00 1.50e-01f  2
iter    objective    inf_pr   inf_du lg(mu)  ||d||  lg(rg) alpha_du alpha_pr  ls
 300r 6.1473582e+01 9.91e-05 1.99e+00  -2.5 3.79e-02    -  1.00e+00 1.00e+00h  1
 301r 6.1555161e+01 4.73e-05 2.25e-01  -2.5 2.20e-02    -  1.00e+00 1.00e+00h  1
 302r 6.1563360e+01 4.73e-05 5.47e-03  -2.5 1.20e-03    -  1.00e+00 1.00e+00h  1
 303r 6.2460647e+01 9.49e-05 6.83e-01  -5.7 9.54e-02    -  7.39e-01 7.30e-01f  1
 304r 6.2128936e+01 6.62e-05 1.81e+02  -5.7 6.73e-02  -0.4 7.81e-01 3.98e-01f  1
 305r 6.1478464e+01 1.78e-04 6.32e+01  -5.7 9.02e-02  -0.9 6.47e-01 6.48e-01f  1
 306r 6.1281281e+01 9.62e-05 6.41e+01  -5.7 1.07e-01  -1.3 7.16e-01 5.55e-01f  1
 307r 6.1207146e+01 9.31e-05 6.38e+02  -5.7 1.36e-01  -0.9 1.53e-01 3.49e-02h  1
 308r 6.0425066e+01 7.27e-05 4.86e+02  -5.7 3.88e-01  -1.4 6.13e-01 2.31e-01f  1
 309r 5.8847285e+01 4.25e-05 3.06e+02  -5.7 5.08e-01  -1.0 4.84e-02 3.82e-01f  1
iter    objective    inf_pr   inf_du lg(mu)  ||d||  lg(rg) alpha_du alpha_pr  ls
 310r 5.8738763e+01 3.67e-05 2.04e+02  -5.7 8.49e-02  -1.4 9.62e-01 2.79e-01f  1
 311r 5.8648875e+01 3.25e-05 1.42e+02  -5.7 6.48e-02  -1.9 5.02e-01 3.15e-01f  1
 312r 5.9004477e+01 4.13e-05 7.60e+01  -5.7 7.32e-02  -2.4 4.03e-01 4.81e-01f  1
 313r 5.9306141e+01 3.25e-05 1.50e+02  -5.7 9.72e-02  -2.9 5.66e-01 4.34e-01f  1
 314r 5.9092043e+01 1.52e-05 2.90e+02  -5.7 1.18e-01    -  1.00e+00 5.29e-01f  1
 315r 5.8656267e+01 4.99e-06 1.67e-01  -5.7 3.05e-02    -  1.00e+00 1.00e+00f  1
 316r 5.8783400e+01 1.07e-06 2.78e-03  -5.7 1.05e-02    -  1.00e+00 1.00e+00h  1
 317  5.8777339e+01 1.07e-06 1.42e+07  -1.0 3.67e-01    -  7.29e-01 4.23e-04h  1
 318  5.8793640e+01 1.07e-06 1.88e+07  -1.0 1.47e+01    -  4.15e-04 2.65e-04h  1
 319  5.8802164e+01 1.07e-06 3.49e+07  -1.0 2.16e+01    -  7.43e-04 1.59e-04f  3
iter    objective    inf_pr   inf_du lg(mu)  ||d||  lg(rg) alpha_du alpha_pr  ls
 320  5.8829847e+01 1.07e-06 1.54e+08  -1.0 3.02e+01    -  2.78e-03 5.75e-04h  1
 321  5.8830017e+01 1.07e-06 2.19e+09  -1.0 1.77e+02    -  1.80e-03 2.57e-05h  3
 322  5.8818889e+01 1.07e-06 2.17e+09  -1.0 3.07e+02    -  8.98e-05 8.98e-05s  9
 323  5.8813343e+01 1.07e-06 2.17e+09  -1.0 3.55e+03    -  3.36e-06 3.36e-06s  9
 324  5.8812029e+01 1.07e-06 2.16e+09  -1.0 1.65e+04    -  5.34e-07 5.34e-07s  9
 325  5.8811905e+01 1.07e-06 2.16e+09  -1.0 7.92e+04    -  1.08e-07 1.08e-07s  9
 326r 5.8811905e+01 1.07e-06 1.00e+03  -1.0 0.00e+00    -  0.00e+00 0.00e+00R  1
 327r 5.8837733e+01 1.57e-06 6.47e+02  -1.0 1.47e-01    -  6.97e-01 1.56e-02f  7
 328r 6.1770539e+01 1.05e-03 5.99e+02  -1.0 2.45e-01    -  3.02e-01 1.00e+00f  1
 329r 5.9432343e+01 9.62e-04 2.77e+02  -1.0 2.47e-01    -  5.07e-01 1.00e+00f  1
iter    objective    inf_pr   inf_du lg(mu)  ||d||  lg(rg) alpha_du alpha_pr  ls
 330r 5.8781306e+01 4.46e-04 2.11e+02  -1.0 1.47e-01    -  5.01e-01 1.00e+00f  1
 331r 6.0427512e+01 5.75e-04 2.86e+02  -1.0 1.28e-01    -  5.34e-01 1.00e+00f  1
 332r 6.2680960e+01 7.37e-04 5.98e+02  -1.0 2.89e-01    -  2.52e-01 8.58e-01f  1
 333r 6.2320583e+01 1.38e-03 4.14e+02  -1.0 8.73e-01   0.0 2.15e-01 3.29e-01f  1
 334r 6.2263084e+01 6.76e-04 2.19e+02  -1.0 1.63e-01    -  7.26e-01 1.00e+00f  1
 335r 6.2617756e+01 6.95e-04 3.13e+01  -1.0 2.44e-01    -  9.44e-01 1.00e+00f  1
 336r 6.2794440e+01 7.17e-04 1.64e+01  -1.0 3.50e-01    -  1.00e+00 1.00e+00f  1
 337r 6.3229289e+01 7.19e-04 3.75e+02  -1.0 3.98e+00   0.4 2.58e-02 7.90e-03f  2
 338r 6.3226950e+01 7.14e-04 7.69e+00  -1.0 7.37e-02    -  1.00e+00 1.00e+00f  1
 339r 6.3120973e+01 7.13e-04 7.53e-01  -1.0 1.81e-02    -  1.00e+00 1.00e+00h  1
iter    objective    inf_pr   inf_du lg(mu)  ||d||  lg(rg) alpha_du alpha_pr  ls
 340r 6.2233701e+01 3.42e-04 3.00e+01  -2.5 1.76e-01    -  5.86e-01 6.30e-01f  1
 341r 6.1916256e+01 2.63e-04 7.12e+01  -2.5 1.04e-01    -  4.46e-01 3.63e-01f  1
 342r 6.0749063e+01 2.56e-04 2.22e+01  -2.5 1.52e-01   0.9 7.20e-01 6.79e-01f  1
 343r 6.1256051e+01 3.72e-04 1.49e+01  -2.5 5.01e-01    -  3.16e-01 3.44e-01f  1
 344r 6.0280055e+01 1.34e-04 2.39e+01  -2.5 1.78e-01   0.4 1.00e+00 6.44e-01f  1
 345r 6.2310506e+01 2.16e-04 3.44e+00  -2.5 9.98e-02    -  1.00e+00 1.00e+00f  1
 346r 6.1752974e+01 9.41e-05 1.22e+02  -2.5 7.39e-02    -  1.00e+00 6.18e-01h  1
 347r 6.1889782e+01 4.44e-05 3.87e+01  -2.5 2.44e-02    -  5.99e-01 1.00e+00f  1
 348r 6.2015597e+01 4.60e-05 1.00e-01  -2.5 1.65e-02    -  1.00e+00 1.00e+00h  1
 349r 6.3118526e+01 9.28e-05 3.17e-01  -3.8 9.04e-02    -  7.74e-01 7.70e-01f  1
iter    objective    inf_pr   inf_du lg(mu)  ||d||  lg(rg) alpha_du alpha_pr  ls
 350r 6.4065432e+01 8.25e-05 1.40e+02  -3.8 8.99e-02    -  9.60e-01 6.35e-01f  1
 351r 6.4869578e+01 1.21e-04 3.59e-01  -3.8 9.52e-02    -  1.00e+00 1.00e+00f  1
 352r 6.3609063e+01 2.14e-05 3.39e-02  -3.8 5.25e-02    -  1.00e+00 1.00e+00h  1
 353r 6.3559845e+01 5.36e-06 2.47e-03  -3.8 1.27e-02    -  1.00e+00 1.00e+00h  1
 354r 6.3416890e+01 3.54e-05 6.61e+00  -5.7 5.17e-02    -  8.26e-01 7.89e-01f  1
 355r 6.5172656e+01 1.12e-04 1.34e+01  -5.7 1.31e-01    -  5.22e-01 6.22e-01f  1
 356r 6.5313603e+01 8.65e-05 2.20e+02  -5.7 6.20e-02    -  7.55e-01 4.35e-01h  1
 357r 6.5200831e+01 7.44e-05 8.37e+02  -5.7 2.03e-02  -0.1 1.07e-02 1.42e-01f  1
 358r 6.4914797e+01 3.86e-05 7.68e+02  -5.7 1.70e-02  -0.6 2.55e-01 4.88e-01f  1
 359r 6.4488562e+01 1.18e-05 1.83e+02  -5.7 1.73e-02  -1.1 1.00e+00 7.69e-01f  1
iter    objective    inf_pr   inf_du lg(mu)  ||d||  lg(rg) alpha_du alpha_pr  ls
 360r 6.4273494e+01 1.02e-05 1.87e+02  -5.7 2.61e-02  -1.5 1.00e+00 2.93e-01f  1
 361r 6.4128032e+01 6.72e-06 6.19e+02  -5.7 3.74e-02  -2.0 1.00e+00 3.99e-01f  1
 362r 6.3906950e+01 2.22e-05 4.91e+02  -5.7 3.43e-01  -2.5 2.43e-01 1.73e-01f  1
 363r 6.3691195e+01 2.99e-05 2.47e+02  -5.7 6.65e-02  -3.0 6.55e-01 4.82e-01f  1
 364r 6.3473050e+01 2.85e-05 3.29e+01  -5.7 4.92e-02  -2.5 5.96e-01 1.00e+00f  1
 365r 6.3436262e+01 3.61e-06 6.38e+00  -5.7 1.44e-02  -2.1 1.00e+00 8.29e-01h  1
 366r 6.2928873e+01 5.51e-06 9.16e+01  -5.7 1.03e-01  -2.6 3.81e-01 5.68e-01f  1
 367r 6.2785682e+01 9.52e-06 2.59e+02  -5.7 3.68e-01  -1.3 7.16e-02 1.33e-01f  1
 368r 6.2784679e+01 9.52e-06 2.58e+02  -5.7 1.16e-01    -  8.39e-05 7.87e-04h  1
 369r 6.2755487e+01 9.34e-06 2.98e+02  -5.7 9.29e-02    -  2.15e-01 2.26e-02f  1
iter    objective    inf_pr   inf_du lg(mu)  ||d||  lg(rg) alpha_du alpha_pr  ls
 370r 6.2658347e+01 6.25e-06 1.71e+02  -5.7 6.54e-02    -  3.05e-01 3.68e-01f  2
 371r 6.2622148e+01 1.60e-06 5.31e+01  -5.7 9.42e-03  -1.7 1.00e+00 8.39e-01h  1
 372r 6.2194990e+01 6.91e-06 6.49e-01  -5.7 1.92e-02    -  1.00e+00 1.00e+00f  1
 373r 6.2315407e+01 1.07e-06 1.61e-02  -5.7 4.66e-03    -  1.00e+00 1.00e+00h  1
 374r 6.2307730e+01 1.07e-06 1.86e-03  -5.7 7.23e-04    -  1.00e+00 1.00e+00h  1
 375r 6.2307911e+01 1.07e-06 1.01e-06  -5.7 4.96e-05    -  1.00e+00 1.00e+00h  1
 376r 6.1853314e+01 1.32e-06 1.18e+02  -8.6 2.03e-02    -  9.14e-01 5.86e-01f  1
 377r 6.1857563e+01 1.10e-06 1.77e+02  -8.6 4.63e-03  -2.2 8.76e-01 5.14e-01h  1
 378r 6.1835750e+01 1.11e-06 7.20e+01  -8.6 1.15e-02  -2.7 9.54e-01 7.94e-01f  1
 379r 6.1759629e+01 1.11e-06 3.76e+01  -8.6 1.72e-02  -3.2 1.00e+00 5.49e-01f  1
iter    objective    inf_pr   inf_du lg(mu)  ||d||  lg(rg) alpha_du alpha_pr  ls
 380r 6.1668626e+01 1.11e-06 2.49e+01  -8.6 1.61e-02  -3.6 1.00e+00 3.28e-01f  1
 381r 6.1428797e+01 1.11e-06 1.55e+01  -8.6 4.65e-02    -  1.00e+00 3.79e-01f  1
 382r 6.1239397e+01 1.11e-06 7.94e-01  -8.6 1.35e-02    -  1.00e+00 9.49e-01f  1
 383r 6.1244338e+01 1.11e-06 3.90e-06  -8.6 4.77e-03    -  1.00e+00 1.00e+00f  1

Number of Iterations....: 383

                                   (scaled)                 (unscaled)
Objective...............:   6.1244305080668148e+01    6.1244305080668148e+01
Dual infeasibility......:   8.3333374309282693e+00    8.3333374309282693e+00
Constraint violation....:   1.1087919685745367e-06    1.1087919685745367e-06
Variable bound violation:   9.9936196663856178e-09    9.9936196663856178e-09
Complementarity.........:   2.5834611196533833e-09    2.5834611196533833e-09
Overall NLP error.......:   8.3333374309282693e+00    8.3333374309282693e+00


Number of objective function evaluations             = 853
Number of objective gradient evaluations             = 198
Number of equality constraint evaluations            = 853
Number of inequality constraint evaluations          = 853
Number of equality constraint Jacobian evaluations   = 392
Number of inequality constraint Jacobian evaluations = 392
Number of Lagrangian Hessian evaluations             = 384
Total seconds in IPOPT (w/o function evaluations)    =      4.661
Total seconds in NLP function evaluations            =      0.164


Timing Statistics:

OverallAlgorithm....................:     17.942 (sys:     15.854 wall:      4.824)
 PrintProblemStatistics.............:      0.002 (sys:      0.007 wall:      0.001)
 InitializeIterates.................:      0.200 (sys:      0.174 wall:      0.024)
 UpdateHessian......................:      0.086 (sys:      0.074 wall:      0.034)
 OutputIteration....................:      0.106 (sys:      0.134 wall:      0.027)
 UpdateBarrierParameter.............:      0.012 (sys:      0.008 wall:      0.006)
 ComputeSearchDirection.............:     14.731 (sys:     14.252 wall:      2.922)
 ComputeAcceptableTrialPoint........:      2.656 (sys:      1.083 wall:      1.760)
 AcceptTrialPoint...................:      0.017 (sys:      0.015 wall:      0.006)
 CheckConvergence...................:      0.114 (sys:      0.095 wall:      0.038)
PDSystemSolverTotal.................:     14.875 (sys:     14.270 wall:      3.043)
 PDSystemSolverSolveOnce............:     14.780 (sys:     14.195 wall:      3.007)
 ComputeResiduals...................:      0.057 (sys:      0.046 wall:      0.020)
 StdAugSystemSolverMultiSolve.......:     16.646 (sys:     14.948 wall:      4.192)
 LinearSystemScaling................:      0.000 (sys:      0.000 wall:      0.000)
 LinearSystemSymbolicFactorization..:      0.080 (sys:      0.044 wall:      0.008)
 LinearSystemFactorization..........:      0.000 (sys:      0.000 wall:      0.000)
 LinearSystemBackSolve..............:      2.015 (sys:      1.313 wall:      0.831)
 LinearSystemStructureConverter.....:      0.000 (sys:      0.000 wall:      0.000)
  LinearSystemStructureConverterInit:      0.000 (sys:      0.000 wall:      0.000)
QualityFunctionSearch...............:      0.000 (sys:      0.000 wall:      0.000)
TryCorrector........................:      0.000 (sys:      0.000 wall:      0.000)
Task1...............................:      0.000 (sys:      0.000 wall:      0.000)
Task2...............................:      0.000 (sys:      0.000 wall:      0.000)
Task3...............................:      0.000 (sys:      0.000 wall:      0.000)
Task4...............................:      0.000 (sys:      0.000 wall:      0.000)
Task5...............................:      0.000 (sys:      0.000 wall:      0.000)
Task6...............................:      0.000 (sys:      0.000 wall:      0.000)
Function Evaluations................:      0.336 (sys:      0.230 wall:      0.164)
 Objective function.................:      0.009 (sys:      0.005 wall:      0.005)
 Objective function gradient........:      0.005 (sys:      0.005 wall:      0.002)
 Equality constraints...............:      0.117 (sys:      0.074 wall:      0.060)
 Inequality constraints.............:      0.009 (sys:      0.006 wall:      0.005)
 Equality constraint Jacobian.......:      0.010 (sys:      0.007 wall:      0.004)
 Inequality constraint Jacobian.....:      0.059 (sys:      0.042 wall:      0.026)
 Lagrangian Hessian.................:      0.128 (sys:      0.092 wall:      0.061)

EXIT: Converged to a point of local infeasibility. Problem may be infeasible.
